c description: Random 3-CNF over 17 variables and 72 clauses
c generator: CNFgen (0.9.2)
c copyright: (C) 2012-2022 Massimo Lauria <massimo.lauria@uniroma1.it>
c url: https://massimolauria.net/cnfgen
c command line: cnfgen --output CNF_4.28/17_bit_72_175.cnf randkcnf 3 17 72
c
p cnf 17 72
-1 10 13 0
-1 2 -11 0
-3 -5 14 0
1 -8 -17 0
-8 14 -15 0
-3 -6 -9 0
-2 -10 -15 0
1 -3 10 0
-1 4 -17 0
6 -12 -14 0
-1 11 -12 0
-14 -15 16 0
-5 6 14 0
-1 2 7 0
-4 -7 8 0
1 -5 -14 0
-2 5 -10 0
2 11 12 0
2 10 13 0
1 -7 -14 0
-4 -7 -9 0
-1 9 -17 0
-13 -16 17 0
1 6 -17 0
10 11 12 0
-2 -4 13 0
-4 -11 13 0
-2 13 -17 0
2 11 -12 0
-6 12 -13 0
7 -12 -14 0
10 12 -13 0
-6 10 -16 0
-6 7 -16 0
-9 -14 15 0
4 -9 10 0
1 2 7 0
-1 6 11 0
-1 13 14 0
-10 13 -17 0
-2 -3 12 0
-7 15 -16 0
-10 12 14 0
-9 -16 -17 0
-10 -11 16 0
-5 11 -14 0
3 11 -13 0
5 -6 -14 0
5 9 10 0
2 -7 -11 0
9 -10 -13 0
-3 5 -11 0
-2 14 16 0
2 4 -17 0
-2 -12 -15 0
-3 11 -17 0
2 7 -13 0
7 8 -10 0
-1 6 12 0
7 9 -12 0
4 5 -17 0
-2 -4 9 0
2 6 8 0
-8 10 -14 0
-2 8 10 0
-3 5 13 0
-2 6 -14 0
-5 -11 16 0
-4 -10 17 0
10 -11 -13 0
7 -12 17 0
-1 7 13 0
